data;

set J := 1 2 3 4 5 6 7 8 9 10;
set I := 1 2 3 4 5 6 7 8 9 10;

param p := 
    1 128
    2 148
    3 114
    4 141
    5 15
    6 39
    7 147
    8 138
    9 1
    10 57;

param r := 
    1 12
    2 2
    3 99
    4 79
    5 95
    6 117
    7 91
    8 134
    9 76
    10 143;

param T := 156;
param R := 160;
param M := 1000000;

end;